
  22   10
  10   10   10   10   10   10   10   10   10   10

   0   0   0   0   0   0   0   0   0   0   0   2 2 21 
   3   0   0  10   0   0   0   0   0   0   0   1 3 
  10   0   0   0   0   0   0   0  10   0   0   1 4 
   7   0   0   0   0   0   0   0  10   0   0   1 5 
   2   0   0   0   0   0   0  10   0   0   0   1 6 
   8   0   0  10   0   0   0   0   0   0   0   2 15 7 
   2   0  10   0   0   0   0   0   0   0   0   1 8 
   3   0   0   0   0   0  10   0   0   0   0   1 9 
   7   0   0   0  10   0   0   0   0   0   0   1 10 
  10   0  10   0   0   0   0   0   0   0   0   1 11 
   3   0   0  10   0   0   0   0   0   0   0   1 12 
  10   0   0   0   0   0   0   0   0   0  10   1 13 
   6   0   0   0   0   0   0  10   0   0   0   1 14 
   9   0   0   0  10   0   0   0   0   0   0   1 16 
   6   0   0   0  10   0   0   0   0   0   0   1 16 
   8   0   0   0   0  10   0   0   0   0   0   1 17 
   4  10   0   0   0   0   0   0   0   0   0   1 18 
   7   0   0   0   0   0   0   0   0   0  10   1 19 
   5  10   0   0   0   0   0   0   0   0   0   1 20 
   9   0   0   0   0   0   0   0   0   0  10   1 22
   3   0   0   0   0   0   0  10   0   0   0   1 22
   0   0   0   0   0   0   0   0   0   0   0   0 
